[27936, 27936, 25296, 23894, 22594, 22596, 20042, 21336, 17604, 16112, 15822, 13258, 12848, 11438, 11312, 10236, 9984, 6760, 6760, 6760, 5070, 5010, 5070, 5070, 4626, 4626, 4320, 3380, 3380, 3264, 3264, 3264, 3156, 3100, 3100, 3016, 3016, 3016, 3016, 3016, 3016, 3016, 3012, 3012, 3016, 3016, 3016, 3016, 3016, 3016, 3016, 3016, 3016, 1976, 1976, 1822, 1976, 1952, 1870, 1870, 1870, 1822, 1758, 1758, 1600, 1600, 1550, 1550, 1550, 1550, 1550, 1550, 1524, 1524, 1458, 1458, 1458, 1458, 1458, 1456, 1456, 1456, 1456, 1456, 1442, 1442, 1440, 1440, 1440, 1440, 1440, 1440, 1440, 1440, 1440, 1440, 1426, 1426, 1426, 1426, 1426, 1426, 1426, 1426, 1410, 1410, 1410, 1410, 1410, 1410, 1410, 1410, 1410, 1410, 1410, 1410, 1410, 1410, 1410, 1410, 1410, 1410, 1410, 1410, 1410, 1410, 1410, 1410, 1410, 1410, 1410, 1410, 1410, 1410, 1410, 1410, 1410, 1410, 1410, 1410, 1410, 1410, 1410, 1410, 1410, 1410, 1410, 1410, 1410, 1410, 1410, 1410, 1410, 1410, 1410, 1410, 1410, 1410, 1410, 1410, 1410, 1410, 1410, 1410, 1410, 1410, 1410, 1410, 1410, 1410, 1410, 1410, 1410, 1410, 1410, 1410, 1410, 1410, 1410, 1410, 1410, 1410, 1410, 1410, 1410, 1410, 1410, 1410, 1410, 1410, 1410, 1410, 1410, 1410, 1410, 1410, 1410, 1410, 1410, 1410]